EDIFF= 1E-7
ISMEAR = -5
ENCUT  = 520
DIPOL  = 0.25 0.25 0.25
LCALCPOL = .TRUE.
