ENCUT = 800
ISMEAR = 0
SIGMA = 0.05
LASPH = T
PREC = Accurate
ADDGRID = .TRUE.
LREAL = F
EDIFF = 1E-7
IBRION = 8
LEPSILON = .TRUE.    
IALGO = 48 
LPEAD = .TRUE.
