    0.0487664131523933    0.2500000000000000    0.0103562699418516     Ba1
    0.4512335868476067    0.7500000000000000    0.5103562699418516     Ba2
    0.5487664131523933    0.2500000000000000    0.4896437300581484     Ba3
    0.9512335868476067    0.7500000000000000    0.9896437300581484     Ba4
    0.0000000000000000    0.0000000000000000    0.5000000000000000     Zr1
    0.5000000000000000    0.0000000000000000    0.0000000000000000     Zr2
    0.5000000000000000    0.5000000000000000    0.0000000000000000     Zr3
    0.0000000000000000    0.5000000000000000    0.5000000000000000     Zr4
    0.9926731000627950    0.2500000000000000    0.5613168915163341      S1
    0.5073268999372050    0.7500000000000000    0.0613168915163342      S2
    0.4926731000627949    0.2500000000000000    0.9386831084836659      S3
    0.0073268999372050    0.7500000000000000    0.4386831084836659      S4
    0.2135942595919873    0.9675450847605607    0.7862336618920933      S5
    0.2864057404080127    0.0324549152394393    0.2862336618920933      S6
    0.7135942595919873    0.5324549152394393    0.7137663381079067      S7
    0.7864057404080127    0.4675450847605607    0.2137663381079067      S8
    0.7864057404080127    0.0324549152394393    0.2137663381079067      S9
    0.7135942595919873    0.9675450847605607    0.7137663381079067     S10
    0.2864057404080127    0.4675450847605607    0.2862336618920933     S11
    0.2135942595919873    0.5324549152394393    0.7862336618920933     S12
